\* Problem *\
Maximize
Objective_Function: 1.07692307692 x_0_0 + 1.53846153846 x_0_1
 + 1.07692307692 x_0_10 + 0.923076923077 x_0_11 + 1.53846153846 x_0_2
 + 0.153846153846 x_0_3 + 0.153846153846 x_0_4 + 0.153846153846 x_0_5
 + 0.615384615385 x_0_6 + 0.461538461538 x_0_7 + 1.23076923077 x_0_8
 + 1.07692307692 x_0_9 + 1.40845070423 x_10_0 + 1.12676056338 x_10_1
 + 0.704225352113 x_10_10 + 0.422535211268 x_10_11 + 0.281690140845 x_10_2
 + 0.281690140845 x_10_3 + 1.40845070423 x_10_4 + 0.704225352113 x_10_5
 + 0.845070422535 x_10_6 + 0.985915492958 x_10_7 + 0.56338028169 x_10_8
 + 1.2676056338 x_10_9 + 1.09756097561 x_11_0 + 0.365853658537 x_11_1
 + 0.365853658537 x_11_10 + 1.09756097561 x_11_11 + 1.21951219512 x_11_2
 + 1.09756097561 x_11_3 + 1.09756097561 x_11_4 + 0.365853658537 x_11_5
 + 0.975609756098 x_11_6 + 0.731707317073 x_11_7 + 0.975609756098 x_11_8
 + 0.609756097561 x_11_9 + 0.789473684211 x_12_0 + 0.394736842105 x_12_1
 + 0.526315789474 x_12_10 + 1.18421052632 x_12_11 + 0.921052631579 x_12_2
 + 0.394736842105 x_12_3 + 1.31578947368 x_12_4 + 1.31578947368 x_12_5
 + 1.18421052632 x_12_6 + 0.526315789474 x_12_7 + 0.921052631579 x_12_8
 + 0.526315789474 x_12_9 + 1.85185185185 x_13_0 + 1.11111111111 x_13_1
 + 0.740740740741 x_13_10 + 0.37037037037 x_13_11 + 0.37037037037 x_13_2
 + 0.185185185185 x_13_3 + 1.66666666667 x_13_4 + 0.37037037037 x_13_5
 + 0.37037037037 x_13_6 + 1.66666666667 x_13_7 + 0.740740740741 x_13_8
 + 0.555555555556 x_13_9 + 0.847457627119 x_14_0 + 0.338983050847 x_14_1
 + 0.338983050847 x_14_10 + 1.01694915254 x_14_11 + 0.677966101695 x_14_2
 + 1.01694915254 x_14_3 + 0.338983050847 x_14_4 + 1.18644067797 x_14_5
 + 1.69491525424 x_14_6 + 1.52542372881 x_14_7 + 0.677966101695 x_14_8
 + 0.338983050847 x_14_9 + 0.384615384615 x_15_0 + 0.384615384615 x_15_1
 + 0.961538461538 x_15_10 + 0.961538461538 x_15_11 + 1.73076923077 x_15_2
 + 1.15384615385 x_15_3 + 1.53846153846 x_15_4 + 0.769230769231 x_15_5
 + 0.961538461538 x_15_6 + 0.384615384615 x_15_7 + 0.192307692308 x_15_8
 + 0.576923076923 x_15_9 + 0.869565217391 x_16_0 + 0.869565217391 x_16_1
 + 1.15942028986 x_16_10 + 1.30434782609 x_16_11 + 1.30434782609 x_16_2
 + 0.869565217391 x_16_3 + 0.579710144928 x_16_4 + 1.44927536232 x_16_5
 + 0.144927536232 x_16_6 + 0.144927536232 x_16_7 + 0.434782608696 x_16_8
 + 0.869565217391 x_16_9 + 0.731707317073 x_17_0 + 0.487804878049 x_17_1
 + 1.09756097561 x_17_10 + 1.09756097561 x_17_11 + 1.21951219512 x_17_2
 + 0.731707317073 x_17_3 + 0.487804878049 x_17_4 + 1.21951219512 x_17_5
 + 0.853658536585 x_17_6 + 0.243902439024 x_17_7 + 0.975609756098 x_17_8
 + 0.853658536585 x_17_9 + 0.721649484536 x_18_0 + 1.03092783505 x_18_1
 + 0.927835051546 x_18_10 + 0.721649484536 x_18_11 + 1.03092783505 x_18_2
 + 1.03092783505 x_18_3 + 0.309278350515 x_18_4 + 1.03092783505 x_18_5
 + 0.721649484536 x_18_6 + 1.03092783505 x_18_7 + 0.927835051546 x_18_8
 + 0.515463917526 x_18_9 + 0.533333333333 x_19_0 + 0.933333333333 x_19_1
 + 0.533333333333 x_19_10 + 0.933333333333 x_19_11 + 0.533333333333 x_19_2
 + 0.666666666667 x_19_3 + 1.33333333333 x_19_4 + 1.2 x_19_5
 + 0.933333333333 x_19_6 + 1.2 x_19_7 + 0.533333333333 x_19_8
 + 0.666666666667 x_19_9 + 0.149253731343 x_1_0 + 1.19402985075 x_1_1
 + 1.34328358209 x_1_10 + 0.746268656716 x_1_11 + 0.298507462687 x_1_2
 + 1.0447761194 x_1_3 + 0.597014925373 x_1_4 + 1.0447761194 x_1_5
 + 1.19402985075 x_1_6 + 1.49253731343 x_1_7 + 0.597014925373 x_1_8
 + 0.298507462687 x_1_9 + 0.78125 x_20_0 + 1.40625 x_20_1 + 0.46875 x_20_10
 + 0.78125 x_20_11 + 0.78125 x_20_2 + 1.09375 x_20_3 + 1.09375 x_20_4
 + 0.15625 x_20_5 + 0.9375 x_20_6 + 1.40625 x_20_7 + 0.46875 x_20_8
 + 0.625 x_20_9 + 0.789473684211 x_21_0 + 0.526315789474 x_21_1
 + 0.657894736842 x_21_10 + 1.31578947368 x_21_11 + 0.789473684211 x_21_2
 + 0.131578947368 x_21_3 + 0.263157894737 x_21_4 + 1.18421052632 x_21_5
 + 1.18421052632 x_21_6 + 0.921052631579 x_21_7 + 0.921052631579 x_21_8
 + 1.31578947368 x_21_9 + 0.704225352113 x_22_0 + 0.704225352113 x_22_1
 + 0.845070422535 x_22_10 + 1.12676056338 x_22_11 + 0.56338028169 x_22_2
 + 0.845070422535 x_22_3 + 0.845070422535 x_22_4 + 0.704225352113 x_22_5
 + 0.704225352113 x_22_6 + 0.704225352113 x_22_7 + 1.12676056338 x_22_8
 + 1.12676056338 x_22_9 + 0.533333333333 x_23_0 + 1.2 x_23_1
 + 1.06666666667 x_23_10 + 0.266666666667 x_23_11 + 1.2 x_23_2
 + 1.06666666667 x_23_3 + 0.4 x_23_4 + 0.8 x_23_5 + 0.933333333333 x_23_6
 + 0.666666666667 x_23_7 + 0.666666666667 x_23_8 + 1.2 x_23_9
 + 0.350877192982 x_24_0 + 1.75438596491 x_24_1 + 0.526315789474 x_24_10
 + 0.350877192982 x_24_11 + 0.877192982456 x_24_2 + 0.175438596491 x_24_3
 + 0.877192982456 x_24_4 + 1.22807017544 x_24_5 + 0.350877192982 x_24_6
 + 1.57894736842 x_24_7 + 1.40350877193 x_24_8 + 0.526315789474 x_24_9
 + 1.30434782609 x_25_0 + 1.30434782609 x_25_1 + 1.44927536232 x_25_10
 + 0.579710144928 x_25_11 + 0.869565217391 x_25_2 + 0.434782608696 x_25_3
 + 0.289855072464 x_25_4 + 0.144927536232 x_25_5 + 1.01449275362 x_25_6
 + 0.869565217391 x_25_7 + 1.15942028986 x_25_8 + 0.579710144928 x_25_9
 + 0.172413793103 x_26_0 + 1.37931034483 x_26_1 + 1.20689655172 x_26_10
 + 0.51724137931 x_26_11 + 1.20689655172 x_26_2 + 0.344827586207 x_26_3
 + 0.172413793103 x_26_4 + 1.03448275862 x_26_5 + 0.344827586207 x_26_6
 + 1.55172413793 x_26_7 + 1.03448275862 x_26_8 + 1.03448275862 x_26_9
 + 0.44776119403 x_27_0 + 0.298507462687 x_27_1 + 1.34328358209 x_27_10
 + 1.34328358209 x_27_11 + 0.149253731343 x_27_2 + 1.34328358209 x_27_3
 + 0.597014925373 x_27_4 + 1.34328358209 x_27_5 + 0.597014925373 x_27_6
 + 0.298507462687 x_27_7 + 1.0447761194 x_27_8 + 1.19402985075 x_27_9
 + 0.333333333333 x_28_0 + 0.5 x_28_1 + 0.833333333333 x_28_10
 + 1.66666666667 x_28_11 + x_28_2 + 0.666666666667 x_28_3 + 1.5 x_28_4
 + 0.166666666667 x_28_5 + 0.666666666667 x_28_6 + x_28_7
 + 1.16666666667 x_28_8 + 0.5 x_28_9 + 1.06060606061 x_29_0
 + 0.454545454545 x_29_1 + 1.51515151515 x_29_10 + 0.454545454545 x_29_11
 + 1.21212121212 x_29_2 + 0.454545454545 x_29_3 + 0.757575757576 x_29_4
 + 0.909090909091 x_29_5 + 0.454545454545 x_29_6 + 0.151515151515 x_29_7
 + 1.21212121212 x_29_8 + 1.36363636364 x_29_9 + 1.01694915254 x_2_0
 + 0.338983050847 x_2_1 + 0.677966101695 x_2_10 + 0.169491525424 x_2_11
 + 1.18644067797 x_2_2 + 1.35593220339 x_2_3 + 1.01694915254 x_2_4
 + 0.338983050847 x_2_5 + 0.847457627119 x_2_6 + 0.508474576271 x_2_7
 + 0.847457627119 x_2_8 + 1.69491525424 x_2_9 + 0.188679245283 x_30_0
 + 0.188679245283 x_30_1 + 1.1320754717 x_30_10 + 1.1320754717 x_30_11
 + 1.32075471698 x_30_2 + 1.50943396226 x_30_3 + 0.943396226415 x_30_4
 + 0.188679245283 x_30_5 + 1.88679245283 x_30_6 + 0.566037735849 x_30_7
 + 0.566037735849 x_30_8 + 0.377358490566 x_30_9 + 0.483870967742 x_31_0
 + 0.161290322581 x_31_1 + 0.645161290323 x_31_10 + 0.483870967742 x_31_11
 + 0.483870967742 x_31_2 + 1.61290322581 x_31_3 + 0.806451612903 x_31_4
 + 1.12903225806 x_31_5 + 0.483870967742 x_31_6 + 1.29032258065 x_31_7
 + 1.45161290323 x_31_8 + 0.967741935484 x_31_9 + 1.36363636364 x_32_0
 + 1.21212121212 x_32_1 + 0.454545454545 x_32_10 + 1.36363636364 x_32_11
 + 0.151515151515 x_32_2 + 0.454545454545 x_32_3 + 0.606060606061 x_32_4
 + 1.21212121212 x_32_5 + 1.21212121212 x_32_6 + 1.06060606061 x_32_7
 + 0.30303030303 x_32_8 + 0.606060606061 x_32_9 + 0.740740740741 x_33_0
 + 0.37037037037 x_33_1 + 1.85185185185 x_33_10 + 1.11111111111 x_33_11
 + 1.11111111111 x_33_2 + 0.37037037037 x_33_3 + 1.85185185185 x_33_4
 + 0.185185185185 x_33_5 + 0.740740740741 x_33_6 + 0.37037037037 x_33_7
 + 0.37037037037 x_33_8 + 0.925925925926 x_33_9 + 0.8 x_34_0 + x_34_1
 + 0.2 x_34_10 + 0.8 x_34_11 + 0.6 x_34_2 + 0.4 x_34_3 + 0.2 x_34_4 + 2 x_34_5
 + 1.8 x_34_6 + 0.4 x_34_7 + 1.4 x_34_8 + 0.4 x_34_9 + 0.12987012987 x_35_0
 + 1.2987012987 x_35_1 + 1.2987012987 x_35_10 + 0.519480519481 x_35_11
 + 1.16883116883 x_35_2 + 0.519480519481 x_35_3 + 0.779220779221 x_35_4
 + 0.909090909091 x_35_5 + 1.03896103896 x_35_6 + 0.38961038961 x_35_7
 + 1.16883116883 x_35_8 + 0.779220779221 x_35_9 + 0.138888888889 x_36_0
 + 1.11111111111 x_36_1 + 1.25 x_36_10 + 1.38888888889 x_36_11 + 1.25 x_36_2
 + 0.694444444444 x_36_3 + 0.277777777778 x_36_4 + 1.38888888889 x_36_5
 + 0.138888888889 x_36_6 + 0.972222222222 x_36_7 + 0.694444444444 x_36_8
 + 0.694444444444 x_36_9 + 0.461538461538 x_37_0 + 0.153846153846 x_37_1
 + 0.615384615385 x_37_10 + 1.53846153846 x_37_11 + 1.23076923077 x_37_2
 + 0.923076923077 x_37_3 + 0.769230769231 x_37_4 + 1.53846153846 x_37_5
 + 1.53846153846 x_37_6 + 0.307692307692 x_37_7 + 0.615384615385 x_37_8
 + 0.307692307692 x_37_9 + 0.740740740741 x_38_0 + 0.617283950617 x_38_1
 + 0.617283950617 x_38_10 + 0.864197530864 x_38_11 + 0.617283950617 x_38_2
 + 1.23456790123 x_38_3 + 0.617283950617 x_38_4 + 0.246913580247 x_38_5
 + 1.11111111111 x_38_6 + 1.11111111111 x_38_7 + 1.11111111111 x_38_8
 + 1.11111111111 x_38_9 + 0.724637681159 x_39_0 + 1.30434782609 x_39_1
 + 0.144927536232 x_39_10 + 1.01449275362 x_39_11 + 1.44927536232 x_39_2
 + 1.01449275362 x_39_3 + 0.434782608696 x_39_4 + 0.869565217391 x_39_5
 + 0.579710144928 x_39_6 + 1.01449275362 x_39_7 + 0.579710144928 x_39_8
 + 0.869565217391 x_39_9 + 0.972222222222 x_3_0 + 0.416666666667 x_3_1
 + 0.416666666667 x_3_10 + 1.38888888889 x_3_11 + 0.833333333333 x_3_2
 + 1.11111111111 x_3_3 + 1.11111111111 x_3_4 + 0.694444444444 x_3_5
 + 1.11111111111 x_3_6 + 0.277777777778 x_3_7 + 0.694444444444 x_3_8
 + 0.972222222222 x_3_9 + 0.161290322581 x_40_0 + 1.61290322581 x_40_1
 + 0.161290322581 x_40_10 + 0.483870967742 x_40_11 + 0.645161290323 x_40_2
 + 0.806451612903 x_40_3 + 1.29032258065 x_40_4 + 1.45161290323 x_40_5
 + 0.806451612903 x_40_6 + 0.161290322581 x_40_7 + 1.61290322581 x_40_8
 + 0.806451612903 x_40_9 + 0.617283950617 x_41_0 + 0.740740740741 x_41_1
 + 0.37037037037 x_41_10 + 0.617283950617 x_41_11 + 1.11111111111 x_41_2
 + 0.617283950617 x_41_3 + 1.11111111111 x_41_4 + 0.987654320988 x_41_5
 + 1.23456790123 x_41_6 + 0.987654320988 x_41_7 + 0.864197530864 x_41_8
 + 0.740740740741 x_41_9 + 0.344827586207 x_42_0 + 0.172413793103 x_42_1
 + 0.172413793103 x_42_10 + 1.03448275862 x_42_11 + 1.20689655172 x_42_2
 + 0.344827586207 x_42_3 + 0.51724137931 x_42_4 + 1.37931034483 x_42_5
 + 0.51724137931 x_42_6 + 1.72413793103 x_42_7 + 1.03448275862 x_42_8
 + 1.55172413793 x_42_9 + 0.4 x_43_0 + 0.6 x_43_1 + 1.4 x_43_10 + 0.6 x_43_11
 + 0.6 x_43_2 + x_43_3 + 0.2 x_43_4 + 1.4 x_43_5 + 2 x_43_6 + 0.4 x_43_7
 + 0.4 x_43_8 + x_43_9 + 1.25 x_44_0 + 0.15625 x_44_1 + 1.09375 x_44_10
 + 0.46875 x_44_11 + 0.15625 x_44_2 + 1.25 x_44_3 + 1.40625 x_44_4
 + 1.5625 x_44_5 + 1.40625 x_44_6 + 0.46875 x_44_7 + 0.15625 x_44_8
 + 0.625 x_44_9 + 0.138888888889 x_45_0 + 1.11111111111 x_45_1
 + 0.972222222222 x_45_10 + 0.138888888889 x_45_11 + 0.972222222222 x_45_2
 + 0.277777777778 x_45_3 + 1.38888888889 x_45_4 + 1.38888888889 x_45_5
 + 0.833333333333 x_45_6 + 0.694444444444 x_45_7 + 1.38888888889 x_45_8
 + 0.694444444444 x_45_9 + 0.714285714286 x_46_0 + 1.42857142857 x_46_1
 + 1.14285714286 x_46_10 + 0.571428571429 x_46_11 + 0.142857142857 x_46_2
 + x_46_3 + 1.42857142857 x_46_4 + 1.42857142857 x_46_5
 + 0.142857142857 x_46_6 + 0.428571428571 x_46_7 + 1.42857142857 x_46_8
 + 0.142857142857 x_46_9 + 0.483870967742 x_47_0 + 0.806451612903 x_47_1
 + 1.61290322581 x_47_10 + 0.967741935484 x_47_11 + 1.12903225806 x_47_2
 + 0.322580645161 x_47_3 + 0.161290322581 x_47_4 + 0.322580645161 x_47_5
 + 0.967741935484 x_47_6 + 1.12903225806 x_47_7 + 1.12903225806 x_47_8
 + 0.967741935484 x_47_9 + 0.909090909091 x_48_0 + 1.21212121212 x_48_1
 + 0.30303030303 x_48_10 + 0.454545454545 x_48_11 + 0.757575757576 x_48_2
 + 0.606060606061 x_48_3 + 0.757575757576 x_48_4 + 1.51515151515 x_48_5
 + 1.51515151515 x_48_6 + 0.454545454545 x_48_7 + 0.151515151515 x_48_8
 + 1.36363636364 x_48_9 + 0.625 x_49_0 + 0.208333333333 x_49_1
 + 0.416666666667 x_49_10 + 1.25 x_49_11 + 1.45833333333 x_49_2 + 0.625 x_49_3
 + 1.45833333333 x_49_4 + 1.45833333333 x_49_5 + 0.208333333333 x_49_6
 + 0.208333333333 x_49_7 + 1.875 x_49_8 + 0.208333333333 x_49_9
 + 1.15942028986 x_4_0 + 0.434782608696 x_4_1 + 0.579710144928 x_4_10
 + 0.289855072464 x_4_11 + 0.869565217391 x_4_2 + 1.30434782609 x_4_3
 + 0.724637681159 x_4_4 + 1.44927536232 x_4_5 + 0.434782608696 x_4_6
 + 1.30434782609 x_4_7 + 0.144927536232 x_4_8 + 1.30434782609 x_4_9
 + 1.0447761194 x_5_0 + 0.746268656716 x_5_1 + 1.0447761194 x_5_10
 + 0.149253731343 x_5_11 + 1.34328358209 x_5_2 + 0.298507462687 x_5_3
 + 1.34328358209 x_5_4 + 1.34328358209 x_5_5 + 0.298507462687 x_5_6
 + 0.597014925373 x_5_7 + 0.89552238806 x_5_8 + 0.89552238806 x_5_9
 + 0.641025641026 x_6_0 + 1.28205128205 x_6_1 + 0.897435897436 x_6_10
 + 1.28205128205 x_6_11 + 0.769230769231 x_6_2 + 1.02564102564 x_6_3
 + 0.512820512821 x_6_4 + 1.02564102564 x_6_5 + 1.02564102564 x_6_6
 + 0.25641025641 x_6_7 + 1.02564102564 x_6_8 + 0.25641025641 x_6_9
 + 0.89552238806 x_7_0 + 1.0447761194 x_7_1 + 1.49253731343 x_7_10
 + 1.0447761194 x_7_11 + 1.19402985075 x_7_2 + 0.298507462687 x_7_3
 + 0.149253731343 x_7_4 + 1.0447761194 x_7_5 + 0.89552238806 x_7_6
 + 0.149253731343 x_7_7 + 1.49253731343 x_7_8 + 0.298507462687 x_7_9
 + 0.958904109589 x_8_0 + 1.23287671233 x_8_1 + 0.684931506849 x_8_10
 + 1.3698630137 x_8_11 + 0.41095890411 x_8_2 + 0.684931506849 x_8_3
 + 0.684931506849 x_8_4 + 0.684931506849 x_8_5 + 0.821917808219 x_8_6
 + 0.13698630137 x_8_7 + 0.958904109589 x_8_8 + 1.3698630137 x_8_9
 + 0.892857142857 x_9_0 + 1.78571428571 x_9_1 + 0.535714285714 x_9_10
 + 0.714285714286 x_9_11 + 0.892857142857 x_9_2 + 1.25 x_9_3
 + 0.357142857143 x_9_4 + 1.60714285714 x_9_5 + 0.357142857143 x_9_6
 + 0.535714285714 x_9_7 + 0.892857142857 x_9_8 + 0.178571428571 x_9_9
Subject To
MaxStudents_0: x_0_0 + x_10_0 + x_11_0 + x_12_0 + x_13_0 + x_14_0 + x_15_0
 + x_16_0 + x_17_0 + x_18_0 + x_19_0 + x_1_0 + x_20_0 + x_21_0 + x_22_0
 + x_23_0 + x_24_0 + x_25_0 + x_26_0 + x_27_0 + x_28_0 + x_29_0 + x_2_0
 + x_30_0 + x_31_0 + x_32_0 + x_33_0 + x_34_0 + x_35_0 + x_36_0 + x_37_0
 + x_38_0 + x_39_0 + x_3_0 + x_40_0 + x_41_0 + x_42_0 + x_43_0 + x_44_0
 + x_45_0 + x_46_0 + x_47_0 + x_48_0 + x_49_0 + x_4_0 + x_5_0 + x_6_0 + x_7_0
 + x_8_0 + x_9_0 <= 5
MaxStudents_1: x_0_1 + x_10_1 + x_11_1 + x_12_1 + x_13_1 + x_14_1 + x_15_1
 + x_16_1 + x_17_1 + x_18_1 + x_19_1 + x_1_1 + x_20_1 + x_21_1 + x_22_1
 + x_23_1 + x_24_1 + x_25_1 + x_26_1 + x_27_1 + x_28_1 + x_29_1 + x_2_1
 + x_30_1 + x_31_1 + x_32_1 + x_33_1 + x_34_1 + x_35_1 + x_36_1 + x_37_1
 + x_38_1 + x_39_1 + x_3_1 + x_40_1 + x_41_1 + x_42_1 + x_43_1 + x_44_1
 + x_45_1 + x_46_1 + x_47_1 + x_48_1 + x_49_1 + x_4_1 + x_5_1 + x_6_1 + x_7_1
 + x_8_1 + x_9_1 <= 5
MaxStudents_10: x_0_10 + x_10_10 + x_11_10 + x_12_10 + x_13_10 + x_14_10
 + x_15_10 + x_16_10 + x_17_10 + x_18_10 + x_19_10 + x_1_10 + x_20_10
 + x_21_10 + x_22_10 + x_23_10 + x_24_10 + x_25_10 + x_26_10 + x_27_10
 + x_28_10 + x_29_10 + x_2_10 + x_30_10 + x_31_10 + x_32_10 + x_33_10
 + x_34_10 + x_35_10 + x_36_10 + x_37_10 + x_38_10 + x_39_10 + x_3_10
 + x_40_10 + x_41_10 + x_42_10 + x_43_10 + x_44_10 + x_45_10 + x_46_10
 + x_47_10 + x_48_10 + x_49_10 + x_4_10 + x_5_10 + x_6_10 + x_7_10 + x_8_10
 + x_9_10 <= 1
MaxStudents_11: x_0_11 + x_10_11 + x_11_11 + x_12_11 + x_13_11 + x_14_11
 + x_15_11 + x_16_11 + x_17_11 + x_18_11 + x_19_11 + x_1_11 + x_20_11
 + x_21_11 + x_22_11 + x_23_11 + x_24_11 + x_25_11 + x_26_11 + x_27_11
 + x_28_11 + x_29_11 + x_2_11 + x_30_11 + x_31_11 + x_32_11 + x_33_11
 + x_34_11 + x_35_11 + x_36_11 + x_37_11 + x_38_11 + x_39_11 + x_3_11
 + x_40_11 + x_41_11 + x_42_11 + x_43_11 + x_44_11 + x_45_11 + x_46_11
 + x_47_11 + x_48_11 + x_49_11 + x_4_11 + x_5_11 + x_6_11 + x_7_11 + x_8_11
 + x_9_11 <= 3
MaxStudents_2: x_0_2 + x_10_2 + x_11_2 + x_12_2 + x_13_2 + x_14_2 + x_15_2
 + x_16_2 + x_17_2 + x_18_2 + x_19_2 + x_1_2 + x_20_2 + x_21_2 + x_22_2
 + x_23_2 + x_24_2 + x_25_2 + x_26_2 + x_27_2 + x_28_2 + x_29_2 + x_2_2
 + x_30_2 + x_31_2 + x_32_2 + x_33_2 + x_34_2 + x_35_2 + x_36_2 + x_37_2
 + x_38_2 + x_39_2 + x_3_2 + x_40_2 + x_41_2 + x_42_2 + x_43_2 + x_44_2
 + x_45_2 + x_46_2 + x_47_2 + x_48_2 + x_49_2 + x_4_2 + x_5_2 + x_6_2 + x_7_2
 + x_8_2 + x_9_2 <= 5
MaxStudents_3: x_0_3 + x_10_3 + x_11_3 + x_12_3 + x_13_3 + x_14_3 + x_15_3
 + x_16_3 + x_17_3 + x_18_3 + x_19_3 + x_1_3 + x_20_3 + x_21_3 + x_22_3
 + x_23_3 + x_24_3 + x_25_3 + x_26_3 + x_27_3 + x_28_3 + x_29_3 + x_2_3
 + x_30_3 + x_31_3 + x_32_3 + x_33_3 + x_34_3 + x_35_3 + x_36_3 + x_37_3
 + x_38_3 + x_39_3 + x_3_3 + x_40_3 + x_41_3 + x_42_3 + x_43_3 + x_44_3
 + x_45_3 + x_46_3 + x_47_3 + x_48_3 + x_49_3 + x_4_3 + x_5_3 + x_6_3 + x_7_3
 + x_8_3 + x_9_3 <= 5
MaxStudents_4: x_0_4 + x_10_4 + x_11_4 + x_12_4 + x_13_4 + x_14_4 + x_15_4
 + x_16_4 + x_17_4 + x_18_4 + x_19_4 + x_1_4 + x_20_4 + x_21_4 + x_22_4
 + x_23_4 + x_24_4 + x_25_4 + x_26_4 + x_27_4 + x_28_4 + x_29_4 + x_2_4
 + x_30_4 + x_31_4 + x_32_4 + x_33_4 + x_34_4 + x_35_4 + x_36_4 + x_37_4
 + x_38_4 + x_39_4 + x_3_4 + x_40_4 + x_41_4 + x_42_4 + x_43_4 + x_44_4
 + x_45_4 + x_46_4 + x_47_4 + x_48_4 + x_49_4 + x_4_4 + x_5_4 + x_6_4 + x_7_4
 + x_8_4 + x_9_4 <= 5
MaxStudents_5: x_0_5 + x_10_5 + x_11_5 + x_12_5 + x_13_5 + x_14_5 + x_15_5
 + x_16_5 + x_17_5 + x_18_5 + x_19_5 + x_1_5 + x_20_5 + x_21_5 + x_22_5
 + x_23_5 + x_24_5 + x_25_5 + x_26_5 + x_27_5 + x_28_5 + x_29_5 + x_2_5
 + x_30_5 + x_31_5 + x_32_5 + x_33_5 + x_34_5 + x_35_5 + x_36_5 + x_37_5
 + x_38_5 + x_39_5 + x_3_5 + x_40_5 + x_41_5 + x_42_5 + x_43_5 + x_44_5
 + x_45_5 + x_46_5 + x_47_5 + x_48_5 + x_49_5 + x_4_5 + x_5_5 + x_6_5 + x_7_5
 + x_8_5 + x_9_5 <= 5
MaxStudents_6: x_0_6 + x_10_6 + x_11_6 + x_12_6 + x_13_6 + x_14_6 + x_15_6
 + x_16_6 + x_17_6 + x_18_6 + x_19_6 + x_1_6 + x_20_6 + x_21_6 + x_22_6
 + x_23_6 + x_24_6 + x_25_6 + x_26_6 + x_27_6 + x_28_6 + x_29_6 + x_2_6
 + x_30_6 + x_31_6 + x_32_6 + x_33_6 + x_34_6 + x_35_6 + x_36_6 + x_37_6
 + x_38_6 + x_39_6 + x_3_6 + x_40_6 + x_41_6 + x_42_6 + x_43_6 + x_44_6
 + x_45_6 + x_46_6 + x_47_6 + x_48_6 + x_49_6 + x_4_6 + x_5_6 + x_6_6 + x_7_6
 + x_8_6 + x_9_6 <= 5
MaxStudents_7: x_0_7 + x_10_7 + x_11_7 + x_12_7 + x_13_7 + x_14_7 + x_15_7
 + x_16_7 + x_17_7 + x_18_7 + x_19_7 + x_1_7 + x_20_7 + x_21_7 + x_22_7
 + x_23_7 + x_24_7 + x_25_7 + x_26_7 + x_27_7 + x_28_7 + x_29_7 + x_2_7
 + x_30_7 + x_31_7 + x_32_7 + x_33_7 + x_34_7 + x_35_7 + x_36_7 + x_37_7
 + x_38_7 + x_39_7 + x_3_7 + x_40_7 + x_41_7 + x_42_7 + x_43_7 + x_44_7
 + x_45_7 + x_46_7 + x_47_7 + x_48_7 + x_49_7 + x_4_7 + x_5_7 + x_6_7 + x_7_7
 + x_8_7 + x_9_7 <= 5
MaxStudents_8: x_0_8 + x_10_8 + x_11_8 + x_12_8 + x_13_8 + x_14_8 + x_15_8
 + x_16_8 + x_17_8 + x_18_8 + x_19_8 + x_1_8 + x_20_8 + x_21_8 + x_22_8
 + x_23_8 + x_24_8 + x_25_8 + x_26_8 + x_27_8 + x_28_8 + x_29_8 + x_2_8
 + x_30_8 + x_31_8 + x_32_8 + x_33_8 + x_34_8 + x_35_8 + x_36_8 + x_37_8
 + x_38_8 + x_39_8 + x_3_8 + x_40_8 + x_41_8 + x_42_8 + x_43_8 + x_44_8
 + x_45_8 + x_46_8 + x_47_8 + x_48_8 + x_49_8 + x_4_8 + x_5_8 + x_6_8 + x_7_8
 + x_8_8 + x_9_8 <= 5
MaxStudents_9: x_0_9 + x_10_9 + x_11_9 + x_12_9 + x_13_9 + x_14_9 + x_15_9
 + x_16_9 + x_17_9 + x_18_9 + x_19_9 + x_1_9 + x_20_9 + x_21_9 + x_22_9
 + x_23_9 + x_24_9 + x_25_9 + x_26_9 + x_27_9 + x_28_9 + x_29_9 + x_2_9
 + x_30_9 + x_31_9 + x_32_9 + x_33_9 + x_34_9 + x_35_9 + x_36_9 + x_37_9
 + x_38_9 + x_39_9 + x_3_9 + x_40_9 + x_41_9 + x_42_9 + x_43_9 + x_44_9
 + x_45_9 + x_46_9 + x_47_9 + x_48_9 + x_49_9 + x_4_9 + x_5_9 + x_6_9 + x_7_9
 + x_8_9 + x_9_9 <= 1
OneSlot_0: x_0_0 + x_0_1 + x_0_10 + x_0_11 + x_0_2 + x_0_3 + x_0_4 + x_0_5
 + x_0_6 + x_0_7 + x_0_8 + x_0_9 = 1
OneSlot_1: x_1_0 + x_1_1 + x_1_10 + x_1_11 + x_1_2 + x_1_3 + x_1_4 + x_1_5
 + x_1_6 + x_1_7 + x_1_8 + x_1_9 = 1
OneSlot_10: x_10_0 + x_10_1 + x_10_10 + x_10_11 + x_10_2 + x_10_3 + x_10_4
 + x_10_5 + x_10_6 + x_10_7 + x_10_8 + x_10_9 = 1
OneSlot_11: x_11_0 + x_11_1 + x_11_10 + x_11_11 + x_11_2 + x_11_3 + x_11_4
 + x_11_5 + x_11_6 + x_11_7 + x_11_8 + x_11_9 = 1
OneSlot_12: x_12_0 + x_12_1 + x_12_10 + x_12_11 + x_12_2 + x_12_3 + x_12_4
 + x_12_5 + x_12_6 + x_12_7 + x_12_8 + x_12_9 = 1
OneSlot_13: x_13_0 + x_13_1 + x_13_10 + x_13_11 + x_13_2 + x_13_3 + x_13_4
 + x_13_5 + x_13_6 + x_13_7 + x_13_8 + x_13_9 = 1
OneSlot_14: x_14_0 + x_14_1 + x_14_10 + x_14_11 + x_14_2 + x_14_3 + x_14_4
 + x_14_5 + x_14_6 + x_14_7 + x_14_8 + x_14_9 = 1
OneSlot_15: x_15_0 + x_15_1 + x_15_10 + x_15_11 + x_15_2 + x_15_3 + x_15_4
 + x_15_5 + x_15_6 + x_15_7 + x_15_8 + x_15_9 = 1
OneSlot_16: x_16_0 + x_16_1 + x_16_10 + x_16_11 + x_16_2 + x_16_3 + x_16_4
 + x_16_5 + x_16_6 + x_16_7 + x_16_8 + x_16_9 = 1
OneSlot_17: x_17_0 + x_17_1 + x_17_10 + x_17_11 + x_17_2 + x_17_3 + x_17_4
 + x_17_5 + x_17_6 + x_17_7 + x_17_8 + x_17_9 = 1
OneSlot_18: x_18_0 + x_18_1 + x_18_10 + x_18_11 + x_18_2 + x_18_3 + x_18_4
 + x_18_5 + x_18_6 + x_18_7 + x_18_8 + x_18_9 = 1
OneSlot_19: x_19_0 + x_19_1 + x_19_10 + x_19_11 + x_19_2 + x_19_3 + x_19_4
 + x_19_5 + x_19_6 + x_19_7 + x_19_8 + x_19_9 = 1
OneSlot_2: x_2_0 + x_2_1 + x_2_10 + x_2_11 + x_2_2 + x_2_3 + x_2_4 + x_2_5
 + x_2_6 + x_2_7 + x_2_8 + x_2_9 = 1
OneSlot_20: x_20_0 + x_20_1 + x_20_10 + x_20_11 + x_20_2 + x_20_3 + x_20_4
 + x_20_5 + x_20_6 + x_20_7 + x_20_8 + x_20_9 = 1
OneSlot_21: x_21_0 + x_21_1 + x_21_10 + x_21_11 + x_21_2 + x_21_3 + x_21_4
 + x_21_5 + x_21_6 + x_21_7 + x_21_8 + x_21_9 = 1
OneSlot_22: x_22_0 + x_22_1 + x_22_10 + x_22_11 + x_22_2 + x_22_3 + x_22_4
 + x_22_5 + x_22_6 + x_22_7 + x_22_8 + x_22_9 = 1
OneSlot_23: x_23_0 + x_23_1 + x_23_10 + x_23_11 + x_23_2 + x_23_3 + x_23_4
 + x_23_5 + x_23_6 + x_23_7 + x_23_8 + x_23_9 = 1
OneSlot_24: x_24_0 + x_24_1 + x_24_10 + x_24_11 + x_24_2 + x_24_3 + x_24_4
 + x_24_5 + x_24_6 + x_24_7 + x_24_8 + x_24_9 = 1
OneSlot_25: x_25_0 + x_25_1 + x_25_10 + x_25_11 + x_25_2 + x_25_3 + x_25_4
 + x_25_5 + x_25_6 + x_25_7 + x_25_8 + x_25_9 = 1
OneSlot_26: x_26_0 + x_26_1 + x_26_10 + x_26_11 + x_26_2 + x_26_3 + x_26_4
 + x_26_5 + x_26_6 + x_26_7 + x_26_8 + x_26_9 = 1
OneSlot_27: x_27_0 + x_27_1 + x_27_10 + x_27_11 + x_27_2 + x_27_3 + x_27_4
 + x_27_5 + x_27_6 + x_27_7 + x_27_8 + x_27_9 = 1
OneSlot_28: x_28_0 + x_28_1 + x_28_10 + x_28_11 + x_28_2 + x_28_3 + x_28_4
 + x_28_5 + x_28_6 + x_28_7 + x_28_8 + x_28_9 = 1
OneSlot_29: x_29_0 + x_29_1 + x_29_10 + x_29_11 + x_29_2 + x_29_3 + x_29_4
 + x_29_5 + x_29_6 + x_29_7 + x_29_8 + x_29_9 = 1
OneSlot_3: x_3_0 + x_3_1 + x_3_10 + x_3_11 + x_3_2 + x_3_3 + x_3_4 + x_3_5
 + x_3_6 + x_3_7 + x_3_8 + x_3_9 = 1
OneSlot_30: x_30_0 + x_30_1 + x_30_10 + x_30_11 + x_30_2 + x_30_3 + x_30_4
 + x_30_5 + x_30_6 + x_30_7 + x_30_8 + x_30_9 = 1
OneSlot_31: x_31_0 + x_31_1 + x_31_10 + x_31_11 + x_31_2 + x_31_3 + x_31_4
 + x_31_5 + x_31_6 + x_31_7 + x_31_8 + x_31_9 = 1
OneSlot_32: x_32_0 + x_32_1 + x_32_10 + x_32_11 + x_32_2 + x_32_3 + x_32_4
 + x_32_5 + x_32_6 + x_32_7 + x_32_8 + x_32_9 = 1
OneSlot_33: x_33_0 + x_33_1 + x_33_10 + x_33_11 + x_33_2 + x_33_3 + x_33_4
 + x_33_5 + x_33_6 + x_33_7 + x_33_8 + x_33_9 = 1
OneSlot_34: x_34_0 + x_34_1 + x_34_10 + x_34_11 + x_34_2 + x_34_3 + x_34_4
 + x_34_5 + x_34_6 + x_34_7 + x_34_8 + x_34_9 = 1
OneSlot_35: x_35_0 + x_35_1 + x_35_10 + x_35_11 + x_35_2 + x_35_3 + x_35_4
 + x_35_5 + x_35_6 + x_35_7 + x_35_8 + x_35_9 = 1
OneSlot_36: x_36_0 + x_36_1 + x_36_10 + x_36_11 + x_36_2 + x_36_3 + x_36_4
 + x_36_5 + x_36_6 + x_36_7 + x_36_8 + x_36_9 = 1
OneSlot_37: x_37_0 + x_37_1 + x_37_10 + x_37_11 + x_37_2 + x_37_3 + x_37_4
 + x_37_5 + x_37_6 + x_37_7 + x_37_8 + x_37_9 = 1
OneSlot_38: x_38_0 + x_38_1 + x_38_10 + x_38_11 + x_38_2 + x_38_3 + x_38_4
 + x_38_5 + x_38_6 + x_38_7 + x_38_8 + x_38_9 = 1
OneSlot_39: x_39_0 + x_39_1 + x_39_10 + x_39_11 + x_39_2 + x_39_3 + x_39_4
 + x_39_5 + x_39_6 + x_39_7 + x_39_8 + x_39_9 = 1
OneSlot_4: x_4_0 + x_4_1 + x_4_10 + x_4_11 + x_4_2 + x_4_3 + x_4_4 + x_4_5
 + x_4_6 + x_4_7 + x_4_8 + x_4_9 = 1
OneSlot_40: x_40_0 + x_40_1 + x_40_10 + x_40_11 + x_40_2 + x_40_3 + x_40_4
 + x_40_5 + x_40_6 + x_40_7 + x_40_8 + x_40_9 = 1
OneSlot_41: x_41_0 + x_41_1 + x_41_10 + x_41_11 + x_41_2 + x_41_3 + x_41_4
 + x_41_5 + x_41_6 + x_41_7 + x_41_8 + x_41_9 = 1
OneSlot_42: x_42_0 + x_42_1 + x_42_10 + x_42_11 + x_42_2 + x_42_3 + x_42_4
 + x_42_5 + x_42_6 + x_42_7 + x_42_8 + x_42_9 = 1
OneSlot_43: x_43_0 + x_43_1 + x_43_10 + x_43_11 + x_43_2 + x_43_3 + x_43_4
 + x_43_5 + x_43_6 + x_43_7 + x_43_8 + x_43_9 = 1
OneSlot_44: x_44_0 + x_44_1 + x_44_10 + x_44_11 + x_44_2 + x_44_3 + x_44_4
 + x_44_5 + x_44_6 + x_44_7 + x_44_8 + x_44_9 = 1
OneSlot_45: x_45_0 + x_45_1 + x_45_10 + x_45_11 + x_45_2 + x_45_3 + x_45_4
 + x_45_5 + x_45_6 + x_45_7 + x_45_8 + x_45_9 = 1
OneSlot_46: x_46_0 + x_46_1 + x_46_10 + x_46_11 + x_46_2 + x_46_3 + x_46_4
 + x_46_5 + x_46_6 + x_46_7 + x_46_8 + x_46_9 = 1
OneSlot_47: x_47_0 + x_47_1 + x_47_10 + x_47_11 + x_47_2 + x_47_3 + x_47_4
 + x_47_5 + x_47_6 + x_47_7 + x_47_8 + x_47_9 = 1
OneSlot_48: x_48_0 + x_48_1 + x_48_10 + x_48_11 + x_48_2 + x_48_3 + x_48_4
 + x_48_5 + x_48_6 + x_48_7 + x_48_8 + x_48_9 = 1
OneSlot_49: x_49_0 + x_49_1 + x_49_10 + x_49_11 + x_49_2 + x_49_3 + x_49_4
 + x_49_5 + x_49_6 + x_49_7 + x_49_8 + x_49_9 = 1
OneSlot_5: x_5_0 + x_5_1 + x_5_10 + x_5_11 + x_5_2 + x_5_3 + x_5_4 + x_5_5
 + x_5_6 + x_5_7 + x_5_8 + x_5_9 = 1
OneSlot_6: x_6_0 + x_6_1 + x_6_10 + x_6_11 + x_6_2 + x_6_3 + x_6_4 + x_6_5
 + x_6_6 + x_6_7 + x_6_8 + x_6_9 = 1
OneSlot_7: x_7_0 + x_7_1 + x_7_10 + x_7_11 + x_7_2 + x_7_3 + x_7_4 + x_7_5
 + x_7_6 + x_7_7 + x_7_8 + x_7_9 = 1
OneSlot_8: x_8_0 + x_8_1 + x_8_10 + x_8_11 + x_8_2 + x_8_3 + x_8_4 + x_8_5
 + x_8_6 + x_8_7 + x_8_8 + x_8_9 = 1
OneSlot_9: x_9_0 + x_9_1 + x_9_10 + x_9_11 + x_9_2 + x_9_3 + x_9_4 + x_9_5
 + x_9_6 + x_9_7 + x_9_8 + x_9_9 = 1
Binaries
x_0_0
x_0_1
x_0_10
x_0_11
x_0_2
x_0_3
x_0_4
x_0_5
x_0_6
x_0_7
x_0_8
x_0_9
x_10_0
x_10_1
x_10_10
x_10_11
x_10_2
x_10_3
x_10_4
x_10_5
x_10_6
x_10_7
x_10_8
x_10_9
x_11_0
x_11_1
x_11_10
x_11_11
x_11_2
x_11_3
x_11_4
x_11_5
x_11_6
x_11_7
x_11_8
x_11_9
x_12_0
x_12_1
x_12_10
x_12_11
x_12_2
x_12_3
x_12_4
x_12_5
x_12_6
x_12_7
x_12_8
x_12_9
x_13_0
x_13_1
x_13_10
x_13_11
x_13_2
x_13_3
x_13_4
x_13_5
x_13_6
x_13_7
x_13_8
x_13_9
x_14_0
x_14_1
x_14_10
x_14_11
x_14_2
x_14_3
x_14_4
x_14_5
x_14_6
x_14_7
x_14_8
x_14_9
x_15_0
x_15_1
x_15_10
x_15_11
x_15_2
x_15_3
x_15_4
x_15_5
x_15_6
x_15_7
x_15_8
x_15_9
x_16_0
x_16_1
x_16_10
x_16_11
x_16_2
x_16_3
x_16_4
x_16_5
x_16_6
x_16_7
x_16_8
x_16_9
x_17_0
x_17_1
x_17_10
x_17_11
x_17_2
x_17_3
x_17_4
x_17_5
x_17_6
x_17_7
x_17_8
x_17_9
x_18_0
x_18_1
x_18_10
x_18_11
x_18_2
x_18_3
x_18_4
x_18_5
x_18_6
x_18_7
x_18_8
x_18_9
x_19_0
x_19_1
x_19_10
x_19_11
x_19_2
x_19_3
x_19_4
x_19_5
x_19_6
x_19_7
x_19_8
x_19_9
x_1_0
x_1_1
x_1_10
x_1_11
x_1_2
x_1_3
x_1_4
x_1_5
x_1_6
x_1_7
x_1_8
x_1_9
x_20_0
x_20_1
x_20_10
x_20_11
x_20_2
x_20_3
x_20_4
x_20_5
x_20_6
x_20_7
x_20_8
x_20_9
x_21_0
x_21_1
x_21_10
x_21_11
x_21_2
x_21_3
x_21_4
x_21_5
x_21_6
x_21_7
x_21_8
x_21_9
x_22_0
x_22_1
x_22_10
x_22_11
x_22_2
x_22_3
x_22_4
x_22_5
x_22_6
x_22_7
x_22_8
x_22_9
x_23_0
x_23_1
x_23_10
x_23_11
x_23_2
x_23_3
x_23_4
x_23_5
x_23_6
x_23_7
x_23_8
x_23_9
x_24_0
x_24_1
x_24_10
x_24_11
x_24_2
x_24_3
x_24_4
x_24_5
x_24_6
x_24_7
x_24_8
x_24_9
x_25_0
x_25_1
x_25_10
x_25_11
x_25_2
x_25_3
x_25_4
x_25_5
x_25_6
x_25_7
x_25_8
x_25_9
x_26_0
x_26_1
x_26_10
x_26_11
x_26_2
x_26_3
x_26_4
x_26_5
x_26_6
x_26_7
x_26_8
x_26_9
x_27_0
x_27_1
x_27_10
x_27_11
x_27_2
x_27_3
x_27_4
x_27_5
x_27_6
x_27_7
x_27_8
x_27_9
x_28_0
x_28_1
x_28_10
x_28_11
x_28_2
x_28_3
x_28_4
x_28_5
x_28_6
x_28_7
x_28_8
x_28_9
x_29_0
x_29_1
x_29_10
x_29_11
x_29_2
x_29_3
x_29_4
x_29_5
x_29_6
x_29_7
x_29_8
x_29_9
x_2_0
x_2_1
x_2_10
x_2_11
x_2_2
x_2_3
x_2_4
x_2_5
x_2_6
x_2_7
x_2_8
x_2_9
x_30_0
x_30_1
x_30_10
x_30_11
x_30_2
x_30_3
x_30_4
x_30_5
x_30_6
x_30_7
x_30_8
x_30_9
x_31_0
x_31_1
x_31_10
x_31_11
x_31_2
x_31_3
x_31_4
x_31_5
x_31_6
x_31_7
x_31_8
x_31_9
x_32_0
x_32_1
x_32_10
x_32_11
x_32_2
x_32_3
x_32_4
x_32_5
x_32_6
x_32_7
x_32_8
x_32_9
x_33_0
x_33_1
x_33_10
x_33_11
x_33_2
x_33_3
x_33_4
x_33_5
x_33_6
x_33_7
x_33_8
x_33_9
x_34_0
x_34_1
x_34_10
x_34_11
x_34_2
x_34_3
x_34_4
x_34_5
x_34_6
x_34_7
x_34_8
x_34_9
x_35_0
x_35_1
x_35_10
x_35_11
x_35_2
x_35_3
x_35_4
x_35_5
x_35_6
x_35_7
x_35_8
x_35_9
x_36_0
x_36_1
x_36_10
x_36_11
x_36_2
x_36_3
x_36_4
x_36_5
x_36_6
x_36_7
x_36_8
x_36_9
x_37_0
x_37_1
x_37_10
x_37_11
x_37_2
x_37_3
x_37_4
x_37_5
x_37_6
x_37_7
x_37_8
x_37_9
x_38_0
x_38_1
x_38_10
x_38_11
x_38_2
x_38_3
x_38_4
x_38_5
x_38_6
x_38_7
x_38_8
x_38_9
x_39_0
x_39_1
x_39_10
x_39_11
x_39_2
x_39_3
x_39_4
x_39_5
x_39_6
x_39_7
x_39_8
x_39_9
x_3_0
x_3_1
x_3_10
x_3_11
x_3_2
x_3_3
x_3_4
x_3_5
x_3_6
x_3_7
x_3_8
x_3_9
x_40_0
x_40_1
x_40_10
x_40_11
x_40_2
x_40_3
x_40_4
x_40_5
x_40_6
x_40_7
x_40_8
x_40_9
x_41_0
x_41_1
x_41_10
x_41_11
x_41_2
x_41_3
x_41_4
x_41_5
x_41_6
x_41_7
x_41_8
x_41_9
x_42_0
x_42_1
x_42_10
x_42_11
x_42_2
x_42_3
x_42_4
x_42_5
x_42_6
x_42_7
x_42_8
x_42_9
x_43_0
x_43_1
x_43_10
x_43_11
x_43_2
x_43_3
x_43_4
x_43_5
x_43_6
x_43_7
x_43_8
x_43_9
x_44_0
x_44_1
x_44_10
x_44_11
x_44_2
x_44_3
x_44_4
x_44_5
x_44_6
x_44_7
x_44_8
x_44_9
x_45_0
x_45_1
x_45_10
x_45_11
x_45_2
x_45_3
x_45_4
x_45_5
x_45_6
x_45_7
x_45_8
x_45_9
x_46_0
x_46_1
x_46_10
x_46_11
x_46_2
x_46_3
x_46_4
x_46_5
x_46_6
x_46_7
x_46_8
x_46_9
x_47_0
x_47_1
x_47_10
x_47_11
x_47_2
x_47_3
x_47_4
x_47_5
x_47_6
x_47_7
x_47_8
x_47_9
x_48_0
x_48_1
x_48_10
x_48_11
x_48_2
x_48_3
x_48_4
x_48_5
x_48_6
x_48_7
x_48_8
x_48_9
x_49_0
x_49_1
x_49_10
x_49_11
x_49_2
x_49_3
x_49_4
x_49_5
x_49_6
x_49_7
x_49_8
x_49_9
x_4_0
x_4_1
x_4_10
x_4_11
x_4_2
x_4_3
x_4_4
x_4_5
x_4_6
x_4_7
x_4_8
x_4_9
x_5_0
x_5_1
x_5_10
x_5_11
x_5_2
x_5_3
x_5_4
x_5_5
x_5_6
x_5_7
x_5_8
x_5_9
x_6_0
x_6_1
x_6_10
x_6_11
x_6_2
x_6_3
x_6_4
x_6_5
x_6_6
x_6_7
x_6_8
x_6_9
x_7_0
x_7_1
x_7_10
x_7_11
x_7_2
x_7_3
x_7_4
x_7_5
x_7_6
x_7_7
x_7_8
x_7_9
x_8_0
x_8_1
x_8_10
x_8_11
x_8_2
x_8_3
x_8_4
x_8_5
x_8_6
x_8_7
x_8_8
x_8_9
x_9_0
x_9_1
x_9_10
x_9_11
x_9_2
x_9_3
x_9_4
x_9_5
x_9_6
x_9_7
x_9_8
x_9_9
End
